n = 4;
puzzle = 
[|UNKNOWN, UNKNOWN, UNKNOWN, UNKNOWN, UNKNOWN, UNKNOWN, UNKNOWN, UNKNOWN,
 |UNKNOWN, UNKNOWN, UNKNOWN, UNKNOWN, UNKNOWN, WHITE, UNKNOWN, BLACK,
 |UNKNOWN, UNKNOWN, UNKNOWN, BLACK, UNKNOWN, BLACK, UNKNOWN, UNKNOWN,
 |UNKNOWN, UNKNOWN, UNKNOWN, BLACK, UNKNOWN, UNKNOWN, WHITE, UNKNOWN,
 |UNKNOWN, UNKNOWN, WHITE, UNKNOWN, UNKNOWN, UNKNOWN, WHITE, UNKNOWN,
 |UNKNOWN, UNKNOWN, UNKNOWN, UNKNOWN, UNKNOWN, UNKNOWN, UNKNOWN, UNKNOWN,
 |WHITE, UNKNOWN, UNKNOWN, UNKNOWN, UNKNOWN, UNKNOWN, UNKNOWN, BLACK,
 |UNKNOWN, UNKNOWN, WHITE, UNKNOWN, BLACK, UNKNOWN, BLACK, BLACK|];
